Instance: Data/Instances_txt/inst_200_30_1.txt
SetUpTime: 1524.0278279781342

Gurobi 10.0.1 (mac64[x86]) logging started Di  1 Aug 22:47:24 2023

Set parameter LogFile to value "Output/MILP_inst_200_30_1_2023-08-01_16-28-50.txt"
Set parameter TimeLimit to value 2700

Gurobi 10.0.1 (mac64[x86]) logging started Di  1 Aug 22:47:24 2023

Set parameter LogFile to value "Output/MILP_inst_200_30_1_2023-08-01_16-28-50.txt"
Gurobi Optimizer version 10.0.1 build v10.0.1rc0 (mac64[x86])

CPU model: Intel(R) Core(TM) i5-1038NG7 CPU @ 2.00GHz
Thread count: 4 physical cores, 8 logical processors, using up to 8 threads

Optimize a model with 401 rows, 512442 columns and 4857981 nonzeros
Model fingerprint: 0x82cea78d
Variable types: 0 continuous, 512442 integer (0 binary)
Coefficient statistics:
  Matrix range     [1e+00, 1e+00]
  Objective range  [2e+00, 2e+04]
  Bounds range     [1e+00, 1e+00]
  RHS range        [1e+00, 1e+00]
Presolve removed 0 rows and 0 columns (presolve time = 5s) ...
Presolve removed 0 rows and 0 columns (presolve time = 10s) ...
Presolve removed 0 rows and 139 columns
Presolve time: 12.54s
Presolved: 401 rows, 512303 columns, 4856636 nonzeros
Variable types: 0 continuous, 512303 integer (512303 binary)

Root simplex log...

Iteration    Objective       Primal Inf.    Dual Inf.      Time
       0    0.0000000e+00   2.020000e+02   0.000000e+00     15s

Starting sifting (using dual simplex for sub-problems)...

    Iter     Pivots    Primal Obj      Dual Obj        Time
       0          0     infinity      0.0000000e+00     16s
       1       2795   2.0200000e+08   2.0098951e+02     16s
       2       6881   1.9851774e+08   5.2176518e+03     16s
       3       9488   1.9407967e+08   8.7665906e+03     16s
       4      14345   1.8937705e+08   1.0026772e+04     16s
       5      16925   1.8918991e+08   1.2194443e+04     17s
       6      19420   1.7877904e+08   1.3510703e+04     17s
       7      23659   1.6834318e+08   1.3901758e+04     17s
       8      28100   1.5798528e+08   1.5047523e+04     18s
       9      34011   1.4925333e+08   1.6696310e+04     18s
      10      38376   1.3678468e+08   1.9125444e+04     18s
      11      42034   1.2987015e+08   2.4250160e+04     18s
      12      48394   1.2334381e+08   3.1949303e+04     19s
      13      52182   1.1132786e+08   3.2866447e+04     19s
      14      55893   1.1132786e+08   3.3733389e+04     20s
      15      60118   1.1037569e+08   3.7006543e+04     20s
      16      68447   1.0560444e+08   3.7492771e+04     21s
      17      77099   1.0003971e+08   3.8551780e+04     22s
      18      86715   9.2324635e+07   3.8456910e+04     23s
      19      96800   8.9839251e+07   3.8587932e+04     24s
      20     110910   8.4556048e+07   4.1524557e+04     26s
      21     124222   7.6802949e+07   4.3694839e+04     28s
      22     135323   6.7175717e+07   4.5825434e+04     30s
      23     145467   5.8546241e+07   4.9452210e+04     32s
      24     157059   4.3047487e+07   5.0531264e+04     34s
      25     173475   2.7758888e+07   5.1749989e+04     38s
      26     182477   2.2911008e+07   5.2653205e+04     40s
      27     200207   1.9698028e+07   5.3229824e+04     44s
      28     218631   1.2857407e+07   5.3354049e+04     49s
      29     234592   9.7499267e+06   5.3676079e+04     53s
      30     248707   5.9592248e+06   5.3804341e+04     57s
      31     264388   2.7305426e+06   5.4116292e+04     62s
      32     271928   1.5840857e+05   2.2003578e+04     64s
      33     278667   1.5146856e+05   2.5717078e+04     66s
      34     288309   1.4869537e+05   2.7982794e+04     70s
      35     295737   1.4084629e+05   3.2558253e+04     72s
      36     304546   1.3424129e+05   3.8534852e+04     76s
      37     312653   1.2601701e+05   5.0542792e+04     79s
      38     325421   1.2002750e+05   6.7222159e+04     84s
      39     334549   1.1538833e+05   8.6470588e+04     88s
      40     346994   1.1372091e+05   1.0033029e+05     93s
      41     357130   1.1311969e+05   1.1047709e+05     97s
      42     362761   1.1302678e+05   1.1290748e+05     99s
      43     365344   1.1302230e+05   1.1382677e+05     99s

Sifting complete

  365344    1.1732706e+05   0.000000e+00   0.000000e+00    100s

Root relaxation: objective 1.173271e+05, 365344 iterations, 84.36 seconds (142.74 work units)

    Nodes    |    Current Node    |     Objective Bounds      |     Work
 Expl Unexpl |  Obj  Depth IntInf | Incumbent    BestBd   Gap | It/Node Time

     0     0 117327.059    0  334          - 117327.059      -     -  104s
     0     0 117329.418    0  342          - 117329.418      -     -  110s
     0     0 117331.111    0  346          - 117331.111      -     -  112s
     0     0 117333.500    0  349          - 117333.500      -     -  114s
     0     0 117335.595    0  352          - 117335.595      -     -  114s
     0     0 117335.595    0  352          - 117335.595      -     -  141s
     0     0 117351.134    0  352          - 117351.134      -     -  252s
     0     0 117354.010    0  338          - 117354.010      -     -  255s
     0     0 117356.312    0  349          - 117356.312      -     -  258s
     0     0 117358.362    0  337          - 117358.362      -     -  261s
     0     0 117360.054    0  349          - 117360.054      -     -  264s
     0     0 117361.555    0  346          - 117361.555      -     -  266s
     0     0 117363.104    0  352          - 117363.104      -     -  267s
     0     0 117364.508    0  350          - 117364.508      -     -  269s
     0     0 117365.721    0  343          - 117365.721      -     -  270s
     0     0 117366.027    0  352          - 117366.027      -     -  271s
     0     0 117366.379    0  344          - 117366.379      -     -  271s
     0     0 117898.418    0  364          - 117898.418      -     -  403s
     0     0 117903.917    0  371          - 117903.917      -     -  414s
     0     0 117904.086    0  363          - 117904.086      -     -  416s
     0     0 117904.723    0  364          - 117904.723      -     -  418s
     0     0 117905.087    0  363          - 117905.087      -     -  420s
     0     0 117906.378    0  368          - 117906.378      -     -  423s
     0     0 117907.319    0  365          - 117907.319      -     -  427s
     0     0 117908.250    0  369          - 117908.250      -     -  432s
     0     0 117908.690    0  369          - 117908.690      -     -  435s
     0     0 117908.812    0  371          - 117908.812      -     -  437s
     0     0 117908.899    0  383          - 117908.899      -     -  438s
     0     0 118023.102    0  380          - 118023.102      -     -  485s
     0     0 118028.894    0  378          - 118028.894      -     -  490s
     0     0 118033.093    0  387          - 118033.093      -     -  496s
     0     0 118037.302    0  390          - 118037.302      -     -  501s
     0     0 118039.837    0  386          - 118039.837      -     -  503s
     0     0 118041.127    0  382          - 118041.127      -     -  508s
     0     0 118042.129    0  382          - 118042.129      -     -  512s
     0     0 118043.149    0  378          - 118043.149      -     -  514s
     0     0 118043.805    0  386          - 118043.805      -     -  519s
     0     0 118044.262    0  386          - 118044.262      -     -  524s
     0     0 118044.487    0  381          - 118044.487      -     -  526s
     0     0 118044.737    0  393          - 118044.737      -     -  531s
     0     0 118044.834    0  389          - 118044.834      -     -  532s
     0     0 118044.988    0  393          - 118044.988      -     -  535s
     0     0 118045.160    0  396          - 118045.160      -     -  537s
     0     0 118045.276    0  391          - 118045.276      -     -  540s
     0     0 118045.485    0  389          - 118045.485      -     -  543s
     0     0 118045.688    0  388          - 118045.688      -     -  547s
     0     0 118045.851    0  392          - 118045.851      -     -  551s
     0     0 118045.945    0  394          - 118045.945      -     -  553s
     0     0 118046.208    0  387          - 118046.208      -     -  556s
     0     0 118046.464    0  395          - 118046.464      -     -  561s
     0     0 118046.464    0  396          - 118046.464      -     -  563s
     0     0 118046.541    0  391          - 118046.541      -     -  565s
     0     0 118046.702    0  393          - 118046.702      -     -  566s
     0     0 118046.857    0  386          - 118046.857      -     -  568s
     0     0 118046.953    0  388          - 118046.953      -     -  569s
     0     0 118047.063    0  388          - 118047.063      -     -  571s
     0     0 118047.187    0  381          - 118047.187      -     -  573s
     0     0 118047.273    0  389          - 118047.273      -     -  574s
     0     0 118047.314    0  393          - 118047.314      -     -  576s
     0     0 118047.315    0  399          - 118047.315      -     -  576s
     0     0 118047.326    0  396          - 118047.326      -     -  576s
     0     0 118288.545    0  424          - 118288.545      -     -  674s
     0     0 118294.573    0  426          - 118294.573      -     -  682s
     0     0 118296.449    0  422          - 118296.449      -     -  689s
     0     0 118296.691    0  422          - 118296.691      -     -  692s
     0     0 118296.906    0  421          - 118296.906      -     -  693s
     0     0 118297.167    0  422          - 118297.167      -     -  696s
     0     0 118297.394    0  422          - 118297.394      -     -  698s
     0     0 118297.664    0  424          - 118297.664      -     -  700s
     0     0 118297.763    0  420          - 118297.763      -     -  702s
     0     0 118297.982    0  424          - 118297.982      -     -  703s
     0     0 118298.240    0  418          - 118298.240      -     -  704s
     0     0 118305.254    0  433          - 118305.254      -     -  772s
     0     0 118305.720    0  431          - 118305.720      -     -  777s
     0     0 118305.994    0  423          - 118305.994      -     -  780s
     0     0 118306.139    0  427          - 118306.139      -     -  783s
     0     0 118306.251    0  433          - 118306.251      -     -  785s
     0     0 118311.504    0  427          - 118311.504      -     -  802s
     0     0 118491.402    0  455          - 118491.402      -     -  915s
     0     0 118492.512    0  460          - 118492.512      -     -  921s
     0     0 118493.035    0  471          - 118493.035      -     -  925s
     0     0 118493.214    0  471          - 118493.214      -     -  928s
     0     0 118493.497    0  468          - 118493.497      -     -  930s
     0     0 118493.764    0  470          - 118493.764      -     -  931s
     0     0 118493.989    0  468          - 118493.989      -     -  932s
     0     0 118494.174    0  474          - 118494.174      -     -  934s
     0     0 118494.228    0  468          - 118494.228      -     -  935s
     0     0 118494.487    0  470          - 118494.487      -     -  938s
     0     0 118494.795    0  472          - 118494.795      -     -  940s
     0     0 118502.151    0  478          - 118502.151      -     -  970s
     0     0 118502.393    0  479          - 118502.393      -     -  973s
     0     0 118502.594    0  480          - 118502.594      -     -  976s
     0     0 118502.802    0  478          - 118502.802      -     -  979s
     0     0 118503.014    0  480          - 118503.014      -     -  982s
     0     0 118503.043    0  475          - 118503.043      -     -  984s
     0     0 118503.099    0  479          - 118503.099      -     -  986s
     0     0 118503.154    0  478          - 118503.154      -     -  986s
     0     0 118503.176    0  480          - 118503.176      -     -  987s
     0     0 118503.179    0  473          - 118503.179      -     -  988s
     0     0 118503.636    0  474          - 118503.636      -     -  996s
     0     0 118590.419    0  499          - 118590.419      -     - 1102s
     0     0 118590.638    0  495          - 118590.638      -     - 1108s
     0     0 118590.906    0  493          - 118590.906      -     - 1112s
     0     0 118591.065    0  493          - 118591.065      -     - 1118s
     0     0 118591.196    0  493          - 118591.196      -     - 1121s
     0     0 118591.324    0  492          - 118591.324      -     - 1124s
     0     0 118591.405    0  493          - 118591.405      -     - 1127s
     0     0 118591.571    0  491          - 118591.571      -     - 1131s
     0     0 118591.674    0  491          - 118591.674      -     - 1134s
     0     0 118591.768    0  491          - 118591.768      -     - 1136s
     0     0 118591.835    0  493          - 118591.835      -     - 1139s
     0     0 118592.688    0  501          - 118592.688      -     - 1157s
     0     0 118592.787    0  491          - 118592.787      -     - 1160s
     0     0 118592.833    0  495          - 118592.833      -     - 1162s
     0     0 118592.845    0  494          - 118592.845      -     - 1163s
     0     0 118592.855    0  494          - 118592.855      -     - 1165s
     0     0 118592.876    0  494          - 118592.876      -     - 1166s
     0     0 118592.883    0  495          - 118592.883      -     - 1167s
     0     0 118592.898    0  491          - 118592.898      -     - 1169s
     0     0 118592.901    0  493          - 118592.901      -     - 1169s
     0     0 118593.002    0  495          - 118593.002      -     - 1175s
     0     0 118593.036    0  496          - 118593.036      -     - 1177s
     0     0 118593.045    0  495          - 118593.045      -     - 1178s
     0     0 118593.053    0  498          - 118593.053      -     - 1180s
     0     0 118593.055    0  496          - 118593.055      -     - 1181s
     0     0 118593.058    0  498          - 118593.058      -     - 1182s
     0     0 118660.841    0  522          - 118660.841      -     - 1295s
     0     0 118661.190    0  517          - 118661.190      -     - 1299s
     0     0 118661.354    0  518          - 118661.354      -     - 1303s
     0     0 118661.417    0  521          - 118661.417      -     - 1306s
     0     0 118661.514    0  522          - 118661.514      -     - 1311s
     0     0 118661.569    0  517          - 118661.569      -     - 1314s
     0     0 118661.592    0  520          - 118661.592      -     - 1316s
     0     0 118661.624    0  517          - 118661.624      -     - 1318s
     0     0 118666.500    0  527          - 118666.500      -     - 1424s
     0     0 118666.764    0  529          - 118666.764      -     - 1429s
     0     0 118666.997    0  522          - 118666.997      -     - 1435s
     0     0 118667.164    0  523          - 118667.164      -     - 1440s
     0     0 118667.243    0  524          - 118667.243      -     - 1441s
     0     0 118667.358    0  524          - 118667.358      -     - 1445s
     0     0 118667.400    0  525          - 118667.400      -     - 1447s
     0     0 118667.460    0  526          - 118667.460      -     - 1450s
     0     0 118667.523    0  520          - 118667.523      -     - 1454s
     0     0 118667.533    0  521          - 118667.533      -     - 1455s
     0     0 118667.540    0  522          - 118667.540      -     - 1456s
     0     0 118706.221    0  539          - 118706.221      -     - 1560s
     0     0 118706.359    0  538          - 118706.359      -     - 1565s
     0     0 118706.421    0  539          - 118706.421      -     - 1570s
     0     0 118706.470    0  539          - 118706.470      -     - 1574s
     0     0 118706.474    0  537          - 118706.474      -     - 1575s
     0     0 118706.477    0  536          - 118706.477      -     - 1576s
     0     0 118707.543    0  518          - 118707.543      -     - 1602s
     0     0 118707.582    0  517          - 118707.582      -     - 1604s
     0     0 118707.703    0  521          - 118707.703      -     - 1610s
     0     0 118707.705    0  519          - 118707.705      -     - 1611s
     0     0 118708.806    0  543          - 118708.806      -     - 1633s
     0     0 118708.821    0  543          - 118708.821      -     - 1635s
     0     0 118708.824    0  543          - 118708.824      -     - 1636s
     0     0 118708.825    0  542          - 118708.825      -     - 1637s
     0     0 118708.826    0  543          - 118708.826      -     - 1638s
     0     0 118709.315    0  549          - 118709.315      -     - 1651s
     0     0 118709.317    0  548          - 118709.317      -     - 1652s
     0     0 118734.634    0  558          - 118734.634      -     - 1743s
     0     0 118735.062    0  565          - 118735.062      -     - 1754s
     0     0 118735.138    0  564          - 118735.138      -     - 1756s
     0     0 118735.240    0  567          - 118735.240      -     - 1762s
     0     0 118735.290    0  566          - 118735.290      -     - 1766s
     0     0 118735.364    0  566          - 118735.364      -     - 1771s
     0     0 118735.389    0  568          - 118735.389      -     - 1774s
     0     0 118735.397    0  564          - 118735.397      -     - 1777s
     0     0 118735.407    0  563          - 118735.407      -     - 1778s
     0     0 118735.417    0  562          - 118735.417      -     - 1779s
     0     0 118735.424    0  564          - 118735.424      -     - 1780s
     0     0 118735.795    0  573          - 118735.795      -     - 1797s
     0     0 118735.807    0  573          - 118735.807      -     - 1799s
     0     0 118735.809    0  571          - 118735.809      -     - 1800s
     0     0 118735.810    0  572          - 118735.810      -     - 1801s
     0     0 118758.090    0  588          - 118758.090      -     - 1906s
     0     0 118758.368    0  586          - 118758.368      -     - 1919s
     0     0 118758.506    0  587          - 118758.506      -     - 1925s
     0     0 118758.531    0  585          - 118758.531      -     - 1928s
     0     0 118758.537    0  585          - 118758.537      -     - 1930s
     0     0 118758.538    0  585          - 118758.538      -     - 1931s
     0     0 118758.541    0  586          - 118758.541      -     - 1932s
     0     0 118758.543    0  586          - 118758.543      -     - 1933s
     0     0 118758.543    0  587          - 118758.543      -     - 1934s
     0     0 118758.877    0  584          - 118758.877      -     - 1952s
     0     0 118758.877    0  583          - 118758.877      -     - 1952s
     0     0 118772.836    0  595          - 118772.836      -     - 2044s
     0     0 118773.070    0  593          - 118773.070      -     - 2053s
     0     0 118773.106    0  593          - 118773.106      -     - 2057s
     0     0 118773.124    0  599          - 118773.124      -     - 2059s
     0     0 118773.129    0  597          - 118773.129      -     - 2061s
     0     0 118773.133    0  597          - 118773.133      -     - 2062s
     0     0 118773.134    0  596          - 118773.134      -     - 2063s
     0     0 118773.139    0  597          - 118773.139      -     - 2064s
     0     0 118773.140    0  601          - 118773.140      -     - 2065s
     0     0 118773.142    0  600          - 118773.142      -     - 2066s
     0     0 118773.144    0  596          - 118773.144      -     - 2067s
     0     0 118774.148    0  599          - 118774.148      -     - 2094s
     0     0 118774.202    0  596          - 118774.202      -     - 2098s
     0     0 118774.202    0  597          - 118774.202      -     - 2099s
     0     0 118774.216    0  597          - 118774.216      -     - 2100s
     0     0 118774.222    0  597          - 118774.222      -     - 2102s
     0     0 118774.229    0  596          - 118774.229      -     - 2104s
     0     0 118774.233    0  596          - 118774.233      -     - 2106s
     0     0 118774.274    0  600          - 118774.274      -     - 2111s
     0     0 118774.279    0  599          - 118774.279      -     - 2113s
     0     0 118774.279    0  599          - 118774.279      -     - 2114s
     0     0 118774.280    0  600          - 118774.280      -     - 2114s
     0     0 118774.415    0  600          - 118774.415      -     - 2121s
     0     0 118788.475    0  612          - 118788.475      -     - 2212s
     0     0 118788.795    0  611          - 118788.795      -     - 2225s
     0     0 118788.935    0  609          - 118788.935      -     - 2236s
     0     0 118788.991    0  611          - 118788.991      -     - 2245s
     0     0 118789.002    0  610          - 118789.002      -     - 2247s
     0     0 118789.002    0  611          - 118789.002      -     - 2248s
     0     0 118789.002    0  610          - 118789.002      -     - 2248s
     0     0 118789.003    0  614          - 118789.003      -     - 2311s
     0     0 118797.252    0  624          - 118797.252      -     - 2395s
     0     0 118797.394    0  621          - 118797.394      -     - 2405s
     0     0 118797.428    0  620          - 118797.428      -     - 2411s
     0     0 118797.448    0  621          - 118797.448      -     - 2415s
     0     0 118797.455    0  620          - 118797.455      -     - 2416s
     0     0 118797.458    0  621          - 118797.458      -     - 2418s
     0     0 118797.458    0  620          - 118797.458      -     - 2419s
     0     0 118797.458    0  620          - 118797.458      -     - 2425s

Cutting planes:
  Clique: 273
  MIR: 2
  Zero half: 8
  RLT: 8

Explored 1 nodes (859048 simplex iterations) in 2700.08 seconds (3439.65 work units)
Thread count was 8 (of 8 available processors)

Solution count 0

Time limit reached
Best objective -, best bound 1.187980000000e+05, gap -

User-callback calls 141650, time in user-callback 0.25 sec

=========================

OUTPUT STATISTICS
Relaxed: false
Time since start: 4238.838901042938
SetUpTime: 1524.0278279781342
